(declare-const v0 Bool)
(declare-const v1 Bool)
(declare-const v2 Bool)
(declare-const v3 Bool)
(declare-const v4 Bool)
(assert (edge (or v1 (not v0)) (or (not v1) v3 (not v2))))
(assert (edge (or (not v3) (not v4)) v2))
(assert (edge true (or (not v1) (not v3))))
(assert (edge (or v1 v4) (not v1)))
(assert (edge (or v0 v2 (not v4)) (or (not v2) (not v3))))
(assert (not (edge v4 (or v0 v3))))